words_hard_train/3583.qaiger
aag 89 16 0 1 73
2
4
12
20
30
32
48
56
74
76
84
88
92
108
124
140
179
6 3 5
8 2 4
10 7 9
14 11 13
16 10 12
18 15 17
22 5 20
24 18 23
26 4 21
28 19 27
34 31 33
36 29 35
38 30 32
40 27 38
42 41 23
44 43 15
46 45 17
50 9 49
52 8 48
54 51 53
58 55 57
60 54 56
62 59 61
64 46 63
66 47 62
68 65 67
70 36 69
72 25 70
78 74 76
80 75 77
82 79 81
86 52 84
90 87 89
94 91 92
96 82 94
98 83 95
100 97 99
102 67 61
104 53 85
106 105 87
110 107 109
112 106 108
114 111 113
116 103 114
118 117 113
120 86 88
122 121 91
126 122 125
128 123 124
130 127 129
132 119 130
134 133 129
136 90 93
138 137 95
142 139 141
144 138 140
146 143 145
148 135 146
150 149 145
152 100 150
154 72 153
156 118 131
158 157 133
160 101 151
162 159 161
164 154 162
166 102 115
168 167 117
170 169 39
172 134 147
174 173 149
176 170 175
178 164 176
i0 2 y2[2]
i1 2 y2[1]
i2 1 x1[2]
i3 1 x1[1]
i4 2 y2[0]
i5 1 x1[0]
i6 2 y2[3]
i7 1 x1[3]
i8 2 y2[7]
i9 1 x1[7]
i10 2 y2[4]
i11 2 y2[5]
i12 2 y2[6]
i13 1 x1[4]
i14 1 x1[5]
i15 1 x1[6]
o0 bool[0]
c
simplified
  !=
    subtract
      add
        -222
        2 y2
      unary minus
        1 x1
    1
