words_hard_train/3583.qaiger.qdimacs
p cnf 89 220
a 38 6 70 10 16 54 28 62 0
e 1 2 3 4 5 7 8 9 11 12 13 14 15 17 18 19 20 21 22 23 24 25 26 27 29 30 31 32 33 34 35 36 37 39 40 41 42 43 44 45 46 47 48 49 50 51 52 53 55 56 57 58 59 60 61 63 64 65 66 67 68 69 71 72 73 74 75 76 77 78 79 80 81 82 83 84 85 86 87 88 89 0
1 2 3 0
-1 -3 0
-2 -3 0
-1 -2 4 0
1 -4 0
2 -4 0
3 4 5 0
-3 -5 0
-4 -5 0
5 6 7 0
-5 -7 0
-6 -7 0
-5 -6 8 0
5 -8 0
6 -8 0
7 8 9 0
-7 -9 0
-8 -9 0
2 -10 11 0
-2 -11 0
10 -11 0
-9 11 12 0
9 -12 0
-11 -12 0
-2 10 13 0
2 -13 0
-10 -13 0
9 13 14 0
-9 -14 0
-13 -14 0
15 16 17 0
-15 -17 0
-16 -17 0
14 17 18 0
-14 -18 0
-17 -18 0
-15 -16 19 0
15 -19 0
16 -19 0
13 -19 20 0
-13 -20 0
19 -20 0
20 11 21 0
-20 -21 0
-11 -21 0
21 7 22 0
-21 -22 0
-7 -22 0
22 8 23 0
-22 -23 0
-8 -23 0
4 24 25 0
-4 -25 0
-24 -25 0
-4 -24 26 0
4 -26 0
24 -26 0
25 26 27 0
-25 -27 0
-26 -27 0
27 28 29 0
-27 -29 0
-28 -29 0
-27 -28 30 0
27 -30 0
28 -30 0
29 30 31 0
-29 -31 0
-30 -31 0
-23 31 32 0
23 -32 0
-31 -32 0
23 -31 33 0
-23 -33 0
31 -33 0
32 33 34 0
-32 -34 0
-33 -34 0
-18 34 35 0
18 -35 0
-34 -35 0
12 -35 36 0
-12 -36 0
35 -36 0
-37 -38 39 0
37 -39 0
38 -39 0
37 38 40 0
-37 -40 0
-38 -40 0
39 40 41 0
-39 -41 0
-40 -41 0
-26 -42 43 0
26 -43 0
42 -43 0
43 44 45 0
-43 -45 0
-44 -45 0
45 -46 47 0
-45 -47 0
46 -47 0
-41 -47 48 0
41 -48 0
47 -48 0
41 47 49 0
-41 -49 0
-47 -49 0
48 49 50 0
-48 -50 0
-49 -50 0
33 30 51 0
-33 -51 0
-30 -51 0
26 42 52 0
-26 -52 0
-42 -52 0
52 43 53 0
-52 -53 0
-43 -53 0
53 54 55 0
-53 -55 0
-54 -55 0
-53 -54 56 0
53 -56 0
54 -56 0
55 56 57 0
-55 -57 0
-56 -57 0
51 -57 58 0
-51 -58 0
57 -58 0
58 56 59 0
-58 -59 0
-56 -59 0
-43 -44 60 0
43 -60 0
44 -60 0
60 45 61 0
-60 -61 0
-45 -61 0
-61 62 63 0
61 -63 0
-62 -63 0
61 -62 64 0
-61 -64 0
62 -64 0
63 64 65 0
-63 -65 0
-64 -65 0
59 -65 66 0
-59 -66 0
65 -66 0
66 64 67 0
-66 -67 0
-64 -67 0
-45 46 68 0
45 -68 0
-46 -68 0
68 47 69 0
-68 -69 0
-47 -69 0
69 70 71 0
-69 -71 0
-70 -71 0
-69 -70 72 0
69 -72 0
70 -72 0
71 72 73 0
-71 -73 0
-72 -73 0
67 -73 74 0
-67 -74 0
73 -74 0
74 72 75 0
-74 -75 0
-72 -75 0
-50 -75 76 0
50 -76 0
75 -76 0
-36 76 77 0
36 -77 0
-76 -77 0
-59 65 78 0
59 -78 0
-65 -78 0
78 66 79 0
-78 -79 0
-66 -79 0
50 75 80 0
-50 -80 0
-75 -80 0
79 80 81 0
-79 -81 0
-80 -81 0
-77 -81 82 0
77 -82 0
81 -82 0
-51 57 83 0
51 -83 0
-57 -83 0
83 58 84 0
-83 -84 0
-58 -84 0
84 19 85 0
-84 -85 0
-19 -85 0
-67 73 86 0
67 -86 0
-73 -86 0
86 74 87 0
-86 -87 0
-74 -87 0
-85 87 88 0
85 -88 0
-87 -88 0
-82 -88 89 0
82 -89 0
88 -89 0
-89 0
